\* LP2 *\
Maximize
Objektfunktion: 100 L + 70 N
Subject To
Lower: - 0.666666666667 L + 0.333333333333 N <= 0
Plastik: 0.5 L + N <= 300
Samling: 2 L + N <= 600
Træ: 2.5 L + 2.25 N <= 900
Upper: - 0.333333333333 L + 0.666666666667 N >= 0
End
